% File represents an instance of a Composite Structure problem to be solved by a CP framework
% Created on 2025-03-26 10:41:35.334
T = 50;
n = 25;
m = 40;
edges = [(1, 2),
(6, 7),
(11, 12),
(16, 17),
(22, 21),
(3, 2),
(8, 7),
(13, 12),
(18, 17),
(23, 22),
(3, 4),
(9, 8),
(13, 14),
(18, 19),
(23, 24),
(4, 5),
(9, 10),
(14, 15),
(19, 20),
(24, 25),
(1, 6),
(11, 6),
(16, 11),
(16, 21),
(2, 7),
(12, 7),
(17, 12),
(22, 17),
(3, 8),
(13, 8),
(18, 13),
(23, 18),
(9, 4),
(9, 14),
(19, 14),
(24, 19),
(10, 5),
(10, 15),
(20, 15),
(25, 20)];
counts = [|2, 20, 2, 18,
|2, 16, 2, 18,
|2, 22, 2, 18,
|2, 18, 2, 18,
|2, 18, 2, 14,
|2, 20, 2, 16,
|2, 16, 2, 14,
|2, 18, 2, 16,
|2, 20, 2, 18,
|2, 20, 2, 16,
|2, 20, 2, 18,
|2, 18, 2, 16,
|2, 18, 2, 18,
|2, 16, 2, 18,
|2, 16, 2, 14,
|2, 20, 2, 22,
|2, 20, 2, 18,
|2, 22, 2, 18,
|2, 18, 2, 18,
|2, 18, 2, 14,
|2, 16, 2, 20,
|2, 20, 2, 20,
|4, 22, 4, 20,
|4, 18, 4, 18,
|4, 18, 4, 14|];
